(declare-const delta_j Int)
(assert (exists
         ((|j'?1| Int) (mem_10@width?2 Int) (mem_9@width?3 Int)
            (mem_10@pos?4 Int) (mem_9@pos?5 Int) (mem_10?6 Int) (mem_9?7 Int)
            (tr?8 Int) (tr?9 Int) (tr?10 Int) (phi_mem_13@width?11 Int)
            (mem_13@width?12 Int) (phi_mem_12@width?13 Int)
            (mem_12@width?14 Int) (phi_mem_11@width?15 Int)
            (mem_11@width?16 Int) (phi_mem_10@width?17 Int)
            (phi_mem_9@width?18 Int) (phi_mem_13@pos?19 Int)
            (mem_13@pos?20 Int) (phi_mem_12@pos?21 Int) (mem_12@pos?22 Int)
            (phi_mem_11@pos?23 Int) (mem_11@pos?24 Int)
            (phi_mem_10@pos?25 Int) (phi_mem_9@pos?26 Int)
            (phi_mem_13?27 Int) (mem_13?28 Int) (phi_mem_12?29 Int)
            (mem_12?30 Int) (phi_mem_11?31 Int) (mem_11?32 Int)
            (phi_mem_10?33 Int) (phi_mem_9?34 Int) (tr?35 Int) (tr?36 Int)
            (tr?37 Int) (path?38 Int) (path@pos?39 Int) (path@width?40 Int)
            (j?41 Int) (i?42 Int) (n?43 Int) (k?44 Int))
         (and (<= (- j?41) 0) (<= (- i?42) 0) (< (- n?43) 0) (<= (- k?44) 0)
                (< (+ (- n?43) j?41) 0)
                (or (and (< (+ (- tr?35) (- tr?36) tr?37) 0)
                           (= (+ (- phi_mem_9?34) path?38 (* 8192 i?42)
                                   (* 8192 j?41)) 0)
                           (= (+ (- phi_mem_10?33) path?38 (* 8192 i?42)
                                   (* 8192 j?41)) 0)
                           (= (+ (- phi_mem_11?31) mem_11?32) 0)
                           (= (+ (- phi_mem_12?29) mem_12?30) 0)
                           (= (+ (- phi_mem_13?27) mem_13?28) 0)
                           (= (+ (- phi_mem_9@pos?26) path@pos?39
                                   (* 8192 i?42) (* 8192 j?41)) 0)
                           (= (+ (- phi_mem_10@pos?25) path@pos?39
                                   (* 8192 i?42) (* 8192 j?41)) 0)
                           (= (+ (- phi_mem_11@pos?23) mem_11@pos?24) 0)
                           (= (+ (- phi_mem_12@pos?21) mem_12@pos?22) 0)
                           (= (+ (- phi_mem_13@pos?19) mem_13@pos?20) 0)
                           (= (+ (- phi_mem_9@width?18) path@width?40) 0)
                           (= (+ (- phi_mem_10@width?17) path@width?40) 0)
                           (= (+ (- phi_mem_11@width?15) mem_11@width?16) 0)
                           (= (+ (- phi_mem_12@width?13) mem_12@width?14) 0)
                           (= (+ (- phi_mem_13@width?11) mem_13@width?12) 0))
                      (and (<= (+ (- tr?8) tr?9 tr?10) 0)
                             (= (+ mem_9?7 (- phi_mem_9?34)) 0)
                             (= (+ mem_10?6 (- phi_mem_10?33)) 0)
                             (= (+ (- phi_mem_11?31) path?38 (* 8192 i?42)
                                     (* 8192 j?41)) 0)
                             (= (+ (- phi_mem_12?29) path?38 (* 8192 k?44)
                                     (* 8192 i?42)) 0)
                             (= (+ (- phi_mem_13?27) path?38 (* 8192 k?44)
                                     (* 8192 j?41)) 0)
                             (= (+ mem_9@pos?5 (- phi_mem_9@pos?26)) 0)
                             (= (+ mem_10@pos?4 (- phi_mem_10@pos?25)) 0)
                             (= (+ (- phi_mem_11@pos?23) path@pos?39
                                     (* 8192 i?42) (* 8192 j?41)) 0)
                             (= (+ (- phi_mem_12@pos?21) path@pos?39
                                     (* 8192 k?44) (* 8192 i?42)) 0)
                             (= (+ (- phi_mem_13@pos?19) path@pos?39
                                     (* 8192 k?44) (* 8192 j?41)) 0)
                             (= (+ mem_9@width?3 (- phi_mem_9@width?18)) 0)
                             (= (+ mem_10@width?2 (- phi_mem_10@width?17)) 0)
                             (= (+ (- phi_mem_11@width?15) path@width?40) 0)
                             (= (+ (- phi_mem_12@width?13) path@width?40) 0)
                             (= (+ (- phi_mem_13@width?11) path@width?40) 0)))
                (= (+ |j'?1| (- j?41) -1) 0) (= delta_j (+ |j'?1| (- j?41))))))
(check-sat)
